5242
1500000
998307
998307
998307
998307
998307
998307
998307
998307
998307
998307
998307
997561
997561
997561
997561
997561
997561
997561
997561
997561
994751
994751
994751
994751
994751
994751
994751
994751
994751
994751
989318
989318
989318
989318
989318
989318
989318
989055
989055
989055
989055
989055
989055
989055
989055
989055
989055
989055
989055
989055
989055
988141
988141
988141
987506
987506
987447
987447
987447
987447
987447
987447
987447
987447
987447
987447
987447
987447
987447
987447
987447
987447
987447
987136
987136
986601
986491
986491
986491
986491
986491
986434
986434
986434
986434
986434
986434
986434
986434
986434
986434
986434
986434
985726
985726
985726
985726
985726
985726
982720
982720
982720
982720
982720
982720
982720
982720
982720
982720
982720
982720
982720
982720
982720
982720
982720
982720
982720
982720
980309
980309
980309
980309
979268
979268
979268
979268
979268
979268
979268
979268
979268
979268
979268
979268
979268
979268
979268
979123
979123
979123
979123
979123
979123
979123
979123
979123
979123
979123
979123
979123
977030
977030
977030
977030
977030
977030
977030
976587
976587
976587
976587
976587
976587
976587
976587
976587
976016
976016
976016
976016
976016
976016
976016
975687
970681
970681
970681
970681
970681
970681
970681
970681
970681
970681
970681
970681
970211
970211
970211
970211
970211
970211
970211
970211
970211
966270
966270
966270
966270
966270
966270
966270
966270
966270
966270
966270
966270
966270
966270
966270
966270
965065
965065
965065
965065
965065
965065
965065
965065
965065
965065
965065
965065
965065
965065
965065
958191
958191
958191
958191
958191
958191
958191
958191
958191
958191
958191
958191
958191
958191
958191
958191
958191
958191
958191
958191
957689
957689
957689
957689
957689
957689
957689
957689
957689
957689
957689
957689
957689
957689
957689
957689
957689
957689
957689
955639
955639
955639
954497
954497
954497
954497
954038
954038
954038
954038
954038
954038
954038
954038
954038
954038
954038
954038
954038
954038
954038
954038
954038
954038
953181
953181
953181
953181
953181
953181
953181
953181
953181
953181
953181
953181
953181
952562
952562
952562
952562
952562
952562
952562
952562
952562
951629
950909
950909
950909
950909
950909
950909
950909
950909
950909
950909
950909
950909
950909
950909
950909
950909
950909
950909
950853
950853
950853
950853
950853
950853
950853
949805
949805
949805
949805
949805
949805
949761
949761
949761
949761
949761
949761
949761
949761
949761
949761
949761
949761
949761
949761
949761
949761
949761
949761
949761
949761
946131
946131
946131
946131
946131
946131
946131
946131
946131
946131
945664
945664
945664
945664
945664
945664
945664
945664
944383
944383
944383
944383
944383
944383
944383
944383
944383
944383
944383
944383
942906
942906
942906
942906
942906
942906
942906
942906
942906
941453
941453
941453
941453
941453
941453
941453
939871
939871
939871
939871
939871
939871
938922
938415
938415
938415
938415
938415
938415
938415
938415
938415
938415
938415
938415
938415
938415
938415
938415
938415
938415
938415
938322
938322
938322
938322
938322
938322
938322
938322
938322
938322
938322
938322
938322
938322
938322
938322
936264
936264
936264
936264
936264
936264
936264
936264
930416
930416
930416
930416
930416
930416
930416
930416
930416
930416
925715
925715
925715
925715
925715
925715
925715
925715
925715
925715
925715
925715
925715
925715
925715
925715
925660
925660
925660
925660
925660
925660
925660
925660
925660
923553
923553
923553
923553
923553
923553
923553
923553
923308
923308
923308
923308
923308
923308
923308
923308
923308
923308
923308
923308
923308
923308
923308
923308
922405
922405
922405
922405
922405
922405
922405
922405
922405
922405
920600
920600
920600
920600
920600
919157
919157
915939
915939
915939
915939
915260
915260
915260
915260
915260
915260
915260
915260
915260
915260
915260
915260
915260
915260
915260
915260
915260
915260
912746
912746
912746
912746
912746
912746
912746
912746
912746
912746
912746
912746
912746
912746
912746
912746
912746
912746
912746
912662
912662
912662
912662
912662
912662
912662
912662
912662
911217
911217
911217
911217
911217
911217
911217
911217
911217
911217
911217
911217
910865
909395
909395
909395
909395
909395
909395
909395
909395
909395
909395
909395
907734
907734
907734
907734
907734
907734
907734
907734
907734
906822
906822
906822
906822
906822
905549
905549
905549
905549
905549
905549
905549
905549
905549
905549
905549
905549
905549
905549
905549
904492
904492
904492
904492
904492
904492
904492
904492
904492
904492
904492
904492
904492
904492
904492
904492
904492
902575
902575
902575
902575
902575
902575
902575
902575
902575
902575
902575
902575
902497
902497
902497
902497
902497
902497
902497
902497
902497
902497
902497
902497
902497
902497
902497
902497
898752
898752
898752
898752
898752
898752
898752
898752
898752
898752
898752
898752
898752
898752
898752
898752
894121
894121
894121
894121
894121
894121
894121
894121
894121
894121
894121
894121
894121
894121
894121
894121
894121
894121
892967
892967
892967
892967
892967
892967
892967
892967
892967
892967
892967
892967
892967
892967
891866
891866
891866
891866
891866
891866
891866
891866
891866
890035
890035
890035
890035
890035
890035
890035
890035
890035
890035
890035
890035
890035
890035
890035
890035
888535
888535
888535
888535
888535
888535
888535
888535
888535
888535
888535
888390
888390
888390
888390
888390
888390
888390
888390
888390
886008
886008
886008
885215
885215
885215
885215
885215
885215
885215
885215
884337
884337
884337
884337
884337
884337
884337
884337
884337
884337
884337
884337
884337
884337
884337
884082
884082
884082
884082
884082
884082
884082
884082
884082
884082
884082
884082
884082
884082
884082
882030
882030
882030
882030
882030
882030
882030
882030
882030
882030
882030
882030
882030
882030
882030
881409
881409
881409
881409
881409
881409
881409
881409
881409
881409
881409
881409
881409
881409
881409
881409
881409
881409
881409
881409
879012
879012
879012
879012
879012
879012
879012
879012
879012
879012
878544
878544
878544
878544
878544
878544
878544
878544
878544
878544
878544
878502
878502
878502
878502
878502
878502
878502
878502
878502
878502
878502
878502
878502
877658
876844
876844
876844
876844
876844
876844
876844
876844
876844
876844
872650
872650
872650
872650
872650
872650
872650
872650
872650
872650
872650
872650
872650
872650
872650
872650
872650
872650
872650
872650
872576
872576
872576
872282
872282
872282
872282
872282
872282
872282
872282
872282
872282
870814
870814
870814
870610
870610
870610
870610
870610
870610
870610
870610
870610
870610
870610
870610
870610
870610
870610
870610
870610
870610
869314
869314
869314
869314
869314
869314
869314
869314
869314
869314
869314
869314
869314
869314
869314
869314
869314
869049
869049
869049
869049
869049
869049
869049
869049
869049
864985
864985
864985
864985
864985
864985
864985
864985
864985
864985
864985
864985
864985
864985
864985
864985
864985
864985
864985
864902
864902
864902
864902
864902
864902
864902
864902
864902
864902
864902
864902
864902
864902
864902
864902
864902
863878
863878
863878
863878
863878
863878
863878
863878
863878
863878
863878
863878
863878
863878
859906
859906
857535
857535
857535
857535
857535
857535
857535
857535
857535
857535
857079
857079
857079
857079
856168
856168
856168
856168
856168
856168
856168
856168
856168
856168
856168
856168
856168
856168
856168
856168
856168
856168
856168
856168
854897
854897
854897
854897
854897
854897
854897
854897
854897
854897
854897
854897
854897
854897
854671
854671
854671
854671
854671
854671
854671
854671
854671
854275
854275
854275
854275
854275
854275
854275
854275
854275
854275
854275
854275
854275
854275
854275
854275
852680
852680
850182
850182
850182
850182
848720
848720
848720
848720
848720
848720
848720
848720
848720
848720
848720
848283
848283
848283
848283
848283
848283
848283
848283
848283
848283
848283
848283
848283
848283
848283
848283
848283
848283
848283
848283
845171
845171
845155
845155
845155
845155
845155
845155
845155
845155
845155
845155
845155
845155
845155
845155
845155
845155
844952
844952
844952
844952
844952
844952
844952
844952
844952
844952
844952
844952
844952
844952
844952
844952
844952
844952
844952
844952
843796
843796
843796
843796
843796
843796
843796
843796
843796
843796
843796
843796
842103
842103
842103
842103
842103
842103
842103
842103
842103
842103
842103
842103
842103
842103
842103
842103
842103
842103
841858
841858
841858
841858
841858
841858
841858
841858
841858
841858
841858
841858
841858
841858
841858
841858
838589
838589
838589
838589
838589
838589
838589
838589
838589
837599
837599
837599
837599
837599
837599
837599
837599
834770
834770
834770
834770
834770
834770
834770
834770
834770
834770
834770
834770
834770
834770
834770
834770
834770
833767
833767
833767
833767
833767
833767
833767
832975
832975
832975
832975
832975
832975
832975
832975
832975
832975
832975
832975
832975
832975
832975
832975
832703
832703
832703
832703
832703
832703
832703
832703
832703
832703
832703
832703
832703
832655
832655
832655
832655
832655
832655
832330
832330
832330
832330
832330
832330
832330
832330
832330
832330
832330
832330
832330
832330
832330
832330
832330
832330
832330
832330
828189
828189
828189
828189
828189
828189
828189
828189
828189
828189
828189
828189
828189
828014
828014
828014
828014
828014
828014
828014
828014
828014
828014
828014
828014
828014
828014
828014
828014
828014
828014
828014
828014
827536
827536
827536
827536
827536
827536
827536
827536
827536
827536
827536
827536
827536
827536
827536
827536
827536
826365
826365
826365
826365
826365
826365
826365
826365
826365
826365
826365
826365
826365
826365
826365
826365
826365
826365
826365
826062
826062
826062
826062
826062
826062
826062
826062
826062
826062
826062
826062
826062
826062
826062
826062
826062
826062
826062
823744
823744
821713
821713
821713
821713
821713
821713
821713
821713
821713
821713
821713
821713
821713
820829
820829
820829
820829
820829
820829
820829
820829
820829
820829
820829
820829
819406
819406
819406
819406
819406
818680
818680
818680
818680
818680
818680
818680
818680
818680
818680
818680
818680
818680
818680
818680
818680
817305
817305
817305
817305
817305
817305
817305
817305
817305
817305
817305
817305
817305
817258
817258
817258
817258
817258
817258
817128
817128
817128
817128
817128
817128
817128
817128
817128
816898
816898
816898
816898
816898
816898
816898
816898
816898
816898
816898
816898
816898
816898
816898
816898
816898
816898
815032
815032
813878
813878
813878
813878
813878
813878
813878
813878
813878
813878
813878
813878
813878
813878
813341
813341
813341
813341
813341
813341
813341
812369
812369
812369
812369
812369
812369
812369
812369
812369
812369
812369
812369
811436
811436
811436
811436
811436
811436
811436
811436
811436
811436
811436
811436
811436
811436
811436
811436
811436
811436
811436
811436
810885
810885
810885
810885
810885
810885
810885
810885
805302
805302
805302
805302
805302
805302
805302
805302
805302
805302
805302
805302
805302
803023
803023
801980
801980
801980
801980
801980
801470
801470
801470
801470
801470
801470
799081
799081
799081
799081
799081
799081
799081
795556
795556
795556
795556
795556
795556
795556
795556
795556
795556
795556
795556
795556
795556
795556
795556
795556
795556
794524
794524
794524
794524
794524
794524
794524
794524
794524
794524
794524
794524
794524
792519
792519
792519
792519
792519
792519
792519
792519
792519
792519
792519
792519
792519
792519
792519
792519
792519
792519
792519
792519
789685
789685
789685
789685
789685
789685
789685
788488
788488
788488
788488
788488
785275
785275
785275
785275
785275
780269
780269
780269
780269
780269
780269
780269
780269
780269
780269
780269
780269
780269
780269
780269
780269
778407
778407
778407
778407
776163
776163
776163
776163
776163
776163
776163
776163
776163
776163
774297
774297
774297
774297
774297
774297
774297
774297
774297
774297
774297
774297
768451
768451
764408
764408
764408
764408
764408
764408
764408
764408
764408
762915
762915
762915
762915
762915
762915
762915
762915
762915
762173
762173
762173
762173
762173
762173
762173
762173
762173
762173
762173
762173
762173
758856
758856
758856
758856
758856
758856
758856
758856
758856
758856
758856
758856
757514
757514
757514
757514
757514
757514
757514
757514
757514
757514
757514
755257
755257
755257
755257
755257
755257
751817
751817
751817
751817
751817
751817
751817
751817
751817
751817
751817
751817
751817
751817
751817
751817
751817
751817
751817
751817
749221
749221
749221
749221
749221
749221
749221
749221
749221
749221
749221
749221
749221
749221
749221
749221
749221
749221
749221
748006
748006
748006
748006
748006
748006
748006
748006
746646
746646
746646
746646
746646
746646
746646
746646
746646
746646
746646
746638
746638
746638
746638
746638
746638
746638
746573
746573
746573
746573
746573
746573
746573
746573
746573
746573
746573
746573
746573
746573
746573
746573
746573
746573
746573
746573
745400
745400
745400
745400
745400
745400
745400
745400
745400
745400
745400
745400
745400
745400
745400
745400
745400
745400
745400
745400
740008
740008
740008
731584
731584
731584
731584
731584
731584
731584
731584
731584
731584
731584
731584
731190
731190
730098
730098
730098
730098
730098
728705
728705
728705
728705
728705
728705
728705
728705
728705
728705
728705
728705
728705
728705
728705
728705
727324
727324
727324
727324
727324
727324
727324
727117
727117
727117
727117
727117
727117
727117
727117
727117
727117
727117
727117
727117
727117
727117
727117
727117
727117
726618
726618
726618
726618
724874
724874
724874
724874
722319
722319
722319
722319
722319
722270
722270
722270
722270
722270
722270
722270
722270
722270
722270
722270
722270
722270
722270
722270
722270
721469
721469
721469
721469
721469
721469
721303
721303
721303
721303
711953
711953
711953
711953
711953
711953
711953
711953
711953
711953
711953
711953
711361
711361
711361
711361
711361
711361
711361
711361
711361
711361
711361
711361
711361
711361
711361
711361
711361
709569
709569
709569
709569
709569
709569
709569
709569
709318
709318
709318
709318
709318
709318
709318
709318
709318
709318
709318
709318
709318
709318
709318
709318
709318
709318
709318
709318
707718
707718
707718
707718
707718
707718
707718
707718
707718
707718
707718
707718
707718
707718
707718
707718
707718
707718
707718
705682
705682
705606
705606
705606
705606
705606
705606
704740
704740
704740
704740
704740
704740
704740
703908
703908
703908
703908
703908
703908
703908
703908
703908
703908
703908
703908
703908
703908
703723
703723
703723
703723
703723
703723
703723
703723
703723
703723
703723
703723
703195
703195
703195
703195
703195
703195
700619
700619
700258
700258
700258
700258
700258
700258
700258
700258
700258
700258
700258
700258
700258
700258
694985
694985
694985
694985
694985
694985
694985
694985
694985
694985
694985
694985
694319
694319
694319
694319
694319
694319
694319
694319
694319
694319
694319
694319
694319
694319
694319
694319
694319
691539
691539
691539
691539
688960
688960
683095
683095
683095
683095
683095
683095
683095
683095
683095
683095
683095
683095
683095
681869
681869
681869
681869
681869
681381
681381
681381
681381
681381
681381
680984
680984
680984
680984
680984
680984
680984
680984
680984
680984
680984
680984
680984
680984
680984
677847
677847
677847
677847
677847
677847
677847
674254
674254
674254
674254
674254
674254
674254
674254
674254
672967
672967
672823
672823
672823
672823
672823
672823
672823
672823
672823
672823
672823
672823
672823
672823
672823
672823
672823
672823
672823
672823
672436
672436
672436
672436
672436
672436
672436
672436
672436
672436
672436
672436
672436
672436
672436
672436
672436
672436
672436
672436
671688
671688
671688
671688
671688
671606
671606
671606
671606
671606
671606
671606
671606
671606
669377
669377
669377
669377
669377
669377
669377
669377
669377
669377
666493
666493
665650
665650
665650
665650
665650
665650
665650
665650
665650
665650
665650
665650
663832
663832
663832
663832
663366
663366
663366
663366
663366
663366
663366
663366
663366
663366
663366
663366
663366
663366
663366
663366
663366
663366
663366
663171
663171
663171
663171
663171
663171
663171
663171
663171
663171
663171
663171
663171
662287
662287
662287
662287
662287
662287
662287
662287
662287
662287
662287
662287
662287
662287
662287
662287
662287
662287
662287
662287
661456
661456
661456
661456
661456
661456
661456
661456
661456
661456
661456
661456
661456
661456
659839
659839
659839
659839
659839
659839
659839
659839
659839
659839
659839
659839
659839
659735
659735
659735
659735
659735
659735
659735
657267
657267
657267
657267
657267
657267
657267
657267
657267
657267
655703
655703
655703
655703
655703
655703
655703
655275
655275
655275
655176
655176
655176
655176
655176
655176
655176
654637
654637
654637
654637
654637
654637
654637
654637
654637
654637
654637
654637
654637
654637
654637
654637
654637
654637
654637
654637
654356
654356
654356
654356
654356
654356
654356
654356
654356
652987
652987
652987
652987
652987
652987
652987
652987
652987
652987
652987
652987
652987
652987
652987
652987
652987
652987
652767
652190
652190
652190
652190
652190
652190
652190
652190
652190
652190
652190
652190
652190
652190
652190
650942
650942
650942
650942
650942
650942
645520
645520
645520
645520
645520
645520
645520
645520
645520
645520
644779
644779
644779
644779
644779
644779
644779
644779
644779
644779
644779
644779
644779
644779
644779
644779
644779
644779
644105
638904
638904
638904
638316
638316
638316
638316
638316
638316
638316
638316
638316
638316
638316
638316
638316
638316
638316
638316
638316
638316
638316
638316
637532
637532
637532
637532
637532
637532
637532
637532
637532
637532
637532
637532
637532
637532
637532
637532
637532
637532
637532
637532
636035
636035
636035
636035
636035
636035
636035
636035
636035
636035
636035
636035
636035
636035
636035
636035
634068
634068
634068
634068
634068
634068
634068
634068
634068
634068
634068
634068
634068
634068
634068
634068
634068
634068
634068
633549
633151
633151
633151
633151
627941
627941
627941
627941
626628
626628
624574
624574
624574
623225
623225
623225
623225
623225
623225
623225
623225
623225
623225
623225
623225
623225
623225
623225
623225
622416
622416
622416
622416
622416
622416
622416
622416
622416
622416
622416
622416
622416
621768
621768
621768
621768
621768
621768
621768
621768
621768
621768
621768
621768
621768
621768
621768
621768
621768
621768
621768
621097
621097
621097
621097
621097
621097
621097
621097
621097
621097
621097
621097
621097
621097
621097
621097
621097
620101
620101
620101
620101
620101
620101
620101
620101
620101
620101
620101
620101
620101
620101
620101
612419
612419
612419
612419
612419
612419
612419
612419
612419
612419
612419
611584
611584
611584
611584
611584
611584
611584
611584
611584
610664
610664
610664
610664
610664
610664
610664
610664
610296
610296
610296
610296
610296
610296
610296
610296
608692
608103
608103
608103
608103
608103
608103
608103
608103
608103
608103
608049
608049
608049
608049
608049
608049
608049
608049
608049
608049
608049
608049
608049
608049
608049
608049
608049
607322
607322
607322
607322
607322
607322
607322
607322
607322
607322
607322
607322
607322
607322
607322
607322
606457
606457
606457
606457
606457
606457
606457
606457
606457
606457
606457
606457
606457
606457
606457
606457
606312
606312
606312
606312
606312
606312
606312
606312
606312
606312
606312
606312
602839
602839
602839
602839
602839
602839
601418
601418
600174
600174
600174
600174
600174
600174
600174
594543
594543
594543
594543
594543
593609
593609
593609
593609
593609
593609
593609
593609
593609
593609
593609
593609
593609
593609
593609
593609
593609
593357
593357
593357
593357
593357
593357
593357
593357
593357
593357
593357
593357
591772
591772
591772
591772
591772
591772
591772
591772
591772
591772
591772
591772
591772
591772
591772
591772
591772
591772
591772
591772
591108
591108
591108
591108
591108
591108
589452
589452
589452
586780
586780
586780
586780
586021
586021
586021
586021
586021
586021
586021
586021
586021
586021
586021
586021
586021
586021
584935
584935
584935
584935
584935
584935
584935
584935
584935
584935
584935
584935
584935
584935
583249
583249
583249
583249
583249
583249
583249
583249
583249
583249
583213
583213
583213
583213
581284
581284
581284
581284
581284
581284
581284
581284
581284
581284
581284
581284
581284
581284
581284
580046
580046
580046
580046
580046
580046
580046
580046
580046
580046
580046
579109
579109
579109
579109
579109
579109
579109
579109
579109
579109
579109
579109
579109
578864
578864
578864
578864
578864
578864
578864
578864
578864
578864
578864
578864
578864
578864
578864
577870
577870
577870
577846
577846
577846
577846
577846
577846
577846
577846
577846
577846
577846
575231
575231
575231
575231
572385
571278
571278
571278
571278
569330
569330
569330
569330
569330
569330
569330
569330
569330
567116
567116
567116
567116
567116
567116
567116
567116
567116
567116
567116
567116
567116
567116
564444
564444
564444
564444
564444
564444
564444
564444
564444
564444
564444
564444
564444
564444
563260
563260
563260
563260
563260
563260
563260
563260
563260
563260
563260
563260
563260
563260
563260
563260
563260
562986
562986
562986
562986
562986
562986
562986
562986
562986
562986
562986
562986
562986
562986
562986
562578
562578
562578
562578
562578
562578
559865
559865
559865
559865
559865
559865
559865
559865
559865
559865
559865
559865
559529
559529
559529
559529
559529
559483
559483
559483
559483
559483
559483
555044
555044
555044
553205
553205
553205
553205
553205
551862
551862
551862
551862
551862
551862
551862
549285
549285
549285
549285
549285
549285
549285
549285
549149
549149
549149
549149
549149
549149
549149
549149
549149
549149
549149
549149
549149
547480
547480
547480
546982
546982
546982
546982
546982
546982
546982
546982
546982
546982
546982
546982
546982
546982
546982
546982
546982
546982
546982
546982
545538
545538
545538
545538
545538
545538
545538
545538
545538
545538
544243
544243
544243
544243
544243
544243
544243
544243
544243
544243
544243
543388
543388
543388
543388
543388
543388
543388
543388
543388
543388
543388
543388
538713
538713
538713
538713
538713
538713
538713
536350
536350
536350
536350
536350
536350
536350
536350
536350
535370
534807
534807
534807
534807
534807
534807
534807
534807
534807
534807
534807
534807
534807
534807
534807
534807
534807
534807
534248
534248
534248
534248
534248
534248
529900
529900
529900
529900
529900
528630
528630
528038
528038
528038
528038
528038
528038
528038
528038
528038
528038
526372
526167
526167
526167
526167
526167
526167
526167
526167
526167
526167
524256
524256
524256
524256
524256
524256
524256
523700
523700
522863
522863
522863
517980
517980
517980
517980
517980
517980
517980
517980
517980
516623
516623
516623
516623
516623
516623
516623
516623
515906
509240
509240
509240
509240
509240
509240
509240
509240
509240
509240
509240
509240
509240
509240
509240
507049
507049
507049
507049
507049
507049
507049
507049
507049
507049
507049
507049
507049
507049
507049
506239
506239
506239
506116
506116
506116
506116
506116
506116
506116
506116
506116
506116
506116
506116
506116
506116
506116
506116
506116
506116
506116
505834
505834
501638
501638
501638
501638
501638
501638
501638
501638
501638
501638
501638
500946
500935
500935
500935
500935
500935
500935
500935
500935
500432
500432
500432
500432
500432
500432
500432
500432
500432
500432
500323
500323
500323
500323
500323
500323
500323
500323
500323
500323
500323
499832
499832
499832
499832
499832
499832
499832
499832
499832
499556
499556
499556
499556
499556
499556
499556
499556
499556
499556
499556
499556
499556
499556
499556
491427
491427
491427
491427
491427
491427
491427
491427
490954
490954
490954
490954
490954
490954
490954
490954
490954
490954
490954
490954
490332
490332
490332
490332
490332
490332
490332
490332
490332
490332
490332
490332
489898
489898
489898
489898
489898
489898
489898
489898
489898
489898
489898
489898
489898
489898
489898
489898
489898
489898
489898
489898
488671
488671
488671
488671
487447
487447
487447
487447
487447
487447
487447
487447
487447
487447
487447
487447
487447
486177
485181
485181
485181
485181
485181
485181
485181
485181
485181
485181
485181
485006
485006
485006
482519
482519
482519
482519
481495
481495
481495
481495
481495
481495
481495
481495
481495
481495
481495
481495
481495
481495
481495
481495
481495
481495
481495
479451
479451
479207
479207
479207
479207
479207
479207
479207
479207
479207
479207
479207
479207
479207
479207
478270
478270
478270
478270
478270
478270
478270
478270
478270
476615
476615
476615
476615
476615
476615
476615
476615
476615
474690
474690
474690
474690
474690
474690
474690
474690
474690
474690
474690
474638
474638
474638
473443
473443
473443
473443
473443
473443
473443
473443
473443
473443
473443
473443
473443
473443
473443
473443
473443
467699
467699
467699
467699
467699
467699
467699
466874
466874
466874
466874
464884
464884
464884
464884
464884
464884
464884
464884
464884
464884
464884
464884
464884
464884
462530
462530
462530
462251
462251
462251
462251
462251
462251
462251
462251
462251
462251
462251
462251
462251
462251
462251
462251
462251
462251
462251
462251
461312
461312
461312
461312
461312
461312
461312
461312
459675
459675
459675
459675
459675
458812
458812
458812
458812
458812
458812
458812
458812
458812
458812
458812
458812
458812
458812
458812
458812
458286
458286
458286
458286
458286
458286
458286
458286
458286
458286
458286
458286
458286
458286
458286
456086
456086
456086
456086
456086
456086
456086
456086
456086
456086
456086
456086
456086
456086
456086
456086
456086
456086
456086
450716
450716
450716
450716
450716
450716
450716
450716
450716
450716
450716
450716
450716
450716
450716
448051
448051
446206
446206
446206
446206
446206
446206
446206
446206
446206
446206
444653
444653
444653
444653
444653
444653
444319
444319
444319
444319
444319
444319
444319
444319
444319
444319
444319
444319
444319
444319
444319
443874
443874
443874
441926
441926
441926
441926
441926
441926
441926
441926
441926
441926
441926
441717
441717
441717
441717
441717
441717
441717
441717
441717
441717
441717
441717
441717
441717
441717
441717
441068
441068
441068
441068
441068
441068
439984
439984
439984
439984
439984
439984
439984
439984
439984
438536
438536
438536
438536
433916
433916
433916
433916
433916
433916
433916
433916
433916
433916
433916
433916
433916
433916
433916
433916
433916
433916
433916
433062
433062
433036
433036
433036
433036
433036
433036
433036
433036
433036
433036
433036
433036
433036
433036
433036
433036
432075
432075
432075
432075
432075
432075
432075
432075
432075
432075
432075
432075
432075
432075
432075
432075
432075
425400
425400
425400
425400
425400
425400
425400
425400
421984
421984
421984
421984
421984
421984
421984
421984
421984
421984
421984
421984
421984
421984
421984
421984
421984
421984
421984
421984
419530
419530
419530
419530
419530
419530
419530
419530
419530
419530
419530
419530
419530
417007
417007
417007
417007
417007
416022
416022
416022
416022
416022
416022
416022
416022
416022
416022
416022
416022
416022
416022
416022
416022
416022
416022
414905
414905
414905
414905
414905
414905
414905
414905
414905
414905
413541
413541
412167
412167
412167
412167
412167
412167
412167
412167
412167
412167
412167
412167
412167
412167
412167
412167
412167
412167
410983
410983
410257
410257
410257
410257
410257
410257
410257
410257
410257
410257
410257
410257
410257
410257
410257
408473
408473
408473
408473
408473
408473
408473
408473
408473
408473
408473
407331
407331
407331
407331
407331
407331
407331
407331
407331
407331
407331
407331
407331
407331
407331
406832
406832
406832
406832
406832
406832
406832
406832
406832
406832
406832
406832
406832
406832
406832
406832
406832
406832
406832
405622
405622
405622
405622
405622
405622
405622
405622
405622
405622
405622
405622
405622
405622
405622
405622
405622
405622
405622
405622
404878
404878
404878
404878
404878
404878
404878
404878
404878
404878
404878
404878
404878
404878
404878
404878
403831
403831
403831
403831
403831
403831
403831
402573
402573
402573
402573
402573
402573
402573
402573
402573
402573
402573
402573
402573
402573
402573
402573
402573
401966
401966
401966
401966
401966
401966
401966
401966
401966
401966
401966
401966
401966
401966
401966
401966
401966
401966
400209
400209
400209
400209
400209
400209
400209
400209
400209
400209
400209
400209
400209
400209
400209
400209
400209
400209
392330
392330
392330
392330
392330
392330
392330
392330
392330
392330
392330
392330
391838
391838
391838
391838
391838
391838
391838
391838
391838
391838
391838
391838
391838
391838
391838
391838
388287
388287
388287
388287
388287
388287
388287
388287
388287
388287
388287
388287
388287
388287
388287
388287
388039
388039
388039
388039
388039
388039
388039
388039
388039
388039
388039
388039
388039
388039
388039
388039
388039
388039
388039
388039
387828
387828
387780
387780
387780
387780
387780
387780
387780
387780
387780
387780
387780
387780
387780
387780
387780
387780
387780
387740
387740
387740
387740
387740
387740
387740
387740
387740
387740
387740
387740
387740
387740
387740
387740
387740
387740
387740
387740
385403
385403
385403
385403
385403
385403
385403
385403
385403
385403
385403
385403
385403
385403
385100
385100
385100
385100
385100
385100
385100
385100
385100
385100
385100
385100
385100
384450
384450
384450
384450
384450
384450
383428
383428
383428
382722
382722
382722
382722
382722
382722
382722
382722
382722
381224
381224
381224
381224
381224
381224
381224
381224
381224
381224
381224
381224
381224
381224
381224
381224
381224
379662
379662
379662
379662
379662
379662
379662
379662
379662
379662
379662
379662
379662
379662
379662
379662
379662
379662
377163
377163
377163
377163
377163
369092
369092
369092
369092
369092
369092
369092
369092
369092
369092
369092
369092
369092
368532
368532
368532
368532
368532
368532
368004
368004
368004
368004
368004
368004
368004
368004
368004
368004
368004
368004
368004
365805
365805
365805
365805
365805
365805
365805
365805
365805
365805
365805
365805
365805
365805
365805
365805
358598
358598
358598
358598
358598
358598
355677
355677
355677
355677
355677
355677
355677
355677
355677
355677
355677
355677
355677
355677
355677
355677
355677
354210
354210
354210
354210
354210
354210
352969
352969
352969
352969
352969
352969
352969
352969
352969
352969
352969
352969
352969
352969
352969
352969
352367
352367
351972
351972
351972
351972
351972
351972
351972
351972
351972
351972
351972
351972
351972
351972
351972
351972
346806
346806
346806
346806
346806
346806
346806
346806
344907
344907
344907
344907
344907
344907
344907
344907
344907
344907
344907
344907
339002
339002
339002
339002
339002
339002
339002
339002
339002
339002
339002
339002
339002
339002
337253
337253
336000
336000
336000
336000
336000
335940
334735
334735
334735
334735
332230
332230
332146
332146
332146
330709
330709
330709
330709
326120
326120
325955
325955
325955
325242
325072
325072
325072
325072
325072
325072
325072
325072
325072
325072
325072
325072
325072
325072
325072
324305
324305
324305
324305
324305
324305
321231
321231
321231
321231
321231
321231
321231
321231
321231
321231
321231
321231
321231
321231
321231
321231
321231
321231
321231
320636
320636
320636
320636
320636
320636
320636
320636
320636
320636
320636
320636
320636
320636
318657
318657
318657
318657
318657
318657
318657
318657
318638
318638
318638
318638
318638
318638
314691
314691
314691
314691
314691
314691
314691
314691
314691
314691
314691
314691
314691
314691
314691
314691
314691
314691
314074
314074
314074
314074
314074
314074
314074
314074
314074
314074
314074
314074
314074
314074
311927
311927
311927
311927
311927
311927
311927
311927
311927
308534
308534
308534
305859
305859
305859
305859
305859
305859
305859
305859
305859
305859
305859
305859
305859
305859
305859
305859
305859
305859
305859
305859
303128
303128
303128
303128
303128
303128
303128
303128
303128
303128
303128
303128
303128
303128
303128
303128
303128
301164
301164
301164
301164
301164
301164
301164
301164
301164
298393
298393
298393
298393
298393
298393
298393
298393
298393
298393
298393
298393
298393
297777
297777
297777
297777
297777
297281
297281
297281
297281
297281
297281
297281
297281
297281
297281
297281
297281
295274
295274
295274
295274
295274
295274
295274
295274
295274
295274
294616
294616
294303
294303
294303
294303
294303
294303
294303
290896
290896
290896
290896
290896
290896
290896
290896
290896
290896
290896
290896
290896
290896
290896
290896
290896
290896
290896
288343
288343
288343
288343
288343
288343
288343
288343
288343
288343
288343
288343
288343
288343
288343
288343
283682
283682
283682
283682
283682
283682
283682
283604
283604
283604
283604
283604
283604
283604
283604
283604
283604
283604
283604
283604
283604
283604
282167
282167
282167
282167
282167
282167
282167
282167
282167
282167
282167
282167
282167
282167
282167
282167
282167
282167
282167
277260
277260
277260
277260
277260
277260
277260
277260
277260
277260
274274
274274
274274
274274
274274
274274
269914
269914
269914
269914
269914
269914
269914
269914
268401
268401
268401
267391
267391
267391
267391
267391
267391
267391
267391
267391
267391
267391
267391
267391
267391
267391
267391
266239
266239
266239
266239
266239
266239
266239
266239
266239
266239
266239
266239
265349
265349
265349
265349
265349
265349
265349
265349
261265
261265
261265
261265
261265
261265
261265
261265
261265
261265
261265
261265
261265
261265
261265
261265
261265
261265
261076
261076
261076
261076
261076
261076
261076
261076
261076
261076
261076
261076
261076
261076
261076
261076
261076
261076
261076
259758
259758
259758
259758
259758
259758
259758
259758
259758
259758
259758
259758
259758
259758
259758
259758
259758
258218
255093
255093
255093
255093
255093
255093
255093
255093
255093
255093
255093
255093
255093
254927
254927
254927
254927
254927
254927
254927
254927
254927
254927
254927
254927
254927
254927
254927
254927
254927
254137
254137
254137
254137
253099
253099
253099
253099
253099
253099
252823
252823
252823
252823
252823
252823
252823
252823
252823
252823
252467
252467
252467
252467
252467
252467
252467
252467
252467
252467
252467
252467
252467
249448
246888
246888
246888
246888
246888
246888
246888
246888
246888
246888
246888
246888
246888
246888
246888
246888
246888
246888
245471
245471
245471
245471
245471
245471
245471
245471
245471
245471
243974
243974
243974
243974
243974
243974
242665
242665
242665
242665
242665
242665
242665
242665
242665
242665
242665
242665
242665
241737
241737
241737
241737
241737
241737
241737
241737
241737
240902
240902
240902
240902
240902
240902
240902
240902
240902
240902
240902
240902
240902
240902
240902
240902
240902
240902
240902
240902
240529
240529
240529
237687
237687
237687
237687
237687
237687
237687
237687
237687
237687
237687
237687
237687
237687
237687
237687
237687
237687
237449
237449
237449
237449
237449
237449
237449
237449
237449
237449
237449
237449
237449
237449
237449
236967
236967
236967
236967
236967
236967
236967
236967
236967
236488
236488
236488
236488
236488
236488
236488
236488
236488
233697
233697
233697
233697
233697
233697
233697
233697
233697
233697
233697
233697
233697
233697
233697
233697
232269
232269
229799
229799
229799
229799
229799
229799
229799
229799
229799
229799
229799
229799
229799
229799
229799
229486
229486
229486
229486
229486
229486
229486
229486
229486
229486
229486
229486
229486
229486
225496
225496
225496
225496
225496
225496
225496
225496
225379
225379
225379
225379
225379
225379
225379
225379
225379
225379
225379
225379
225379
225379
225379
225379
225379
222231
222231
222231
222231
222231
222231
222231
222231
222231
222231
222231
220356
220356
220356
220356
220356
220356
220356
220356
220356
220356
220356
220356
220356
220356
220356
220356
220356
219935
219935
219935
219935
219935
219935
219935
219935
219935
215940
215940
215940
215940
215940
215940
215940
215940
215940
215940
215940
215940
214424
214424
214424
214424
214424
214424
214424
214424
214424
214424
214424
214424
214424
214424
214424
214424
214424
214316
214316
214316
214316
214316
214316
214316
213721
213721
213721
213721
213721
213721
213721
213721
213721
213721
213721
211305
211305
211305
211305
211305
211305
211305
211305
211305
211305
211305
211305
211305
211305
203906
203906
203906
203906
203906
203906
203906
203906
203906
203906
203906
203906
203906
203906
203906
203906
203906
203906
203906
203117
203117
203117
203117
203117
203117
203117
203117
202085
202085
202085
201749
201749
201749
201749
201749
201749
201749
201749
201749
201749
